100 10000
82 304
92 417
14 172
65 243
64 413
39 51
41 236
28 232
4 352
84 106
81 407
73 282
13 166
16 36
62 426
83 354
10 216
58 283
41 92
58 342
55 289
84 155
44 388
6 116
19 57
53 174
37 144
26 137
94 114
62 381
6 101
98 39
99 391
31 61
46 158
97 255
57 241
2 472
30 269
70 191
79 332
72 228
94 368
40 80
20 329
9 464
2 303
29 193
30 310
51 251
3 225
62 439
13 483
88 66
14 92
43 348
50 422
81 305
30 14
57 315
35 481
62 304
33 438
54 222
18 220
66 343
4 314
46 465
11 107
72 422
63 355
81 282
33 78
56 136
13 28
75 186
9 179
79 73
68 11
89 209
26 41
57 430
88 119
2 36
57 130
59 246
60 298
91 6
41 400
1 175
53 77
21 124
57 430
33 443
79 221
95 183
85 152
83 410
38 182
34 426
